(set-logic HORN)
(set-info :source |
    Benchmark: 
    Output by Princess (http://www.philipp.ruemmer.org/princess.shtml)
|)
(declare-heap Heap Addr HeapObject
 defObj
 ((HeapObject 0) (TSLL 0)) (
  (
   (O_Int (getInt Int))
   (O_UInt (getUInt Int))
   (O_Addr (getAddr Addr))
   (O_AddrRange (getAddrRange AddrRange))
   (O_TSLL (getTSLL TSLL))
   (defObj)
  )
  (
   (TSLL (|TSLL::next| Addr) (|TSLL::data| Int))
  )
))
(declare-fun _Glue5 (Heap HeapObject) Bool)
(declare-fun _Glue19 (Addr Addr Addr Heap HeapObject) Bool)
(declare-fun _Glue8 (Addr Addr Heap HeapObject) Bool)
(declare-fun inv_main_14 (Heap Addr) Bool)
(declare-fun _Glue4 (Addr Heap Addr HeapObject) Bool)
(declare-fun _Glue1 (Addr Addr Addr Addr Heap HeapObject) Bool)
(declare-fun _Glue14 (Addr Addr Addr Addr Heap HeapObject) Bool)
(declare-fun _Glue11_exp_exp (Addr Addr Int Addr Heap Addr HeapObject) Bool)
(declare-fun inv_main1007_2 (Heap Addr Addr) Bool)
(declare-fun Inv_Heap_exp_exp (Addr Addr Int) Bool)
(declare-fun _Glue17 (Addr Addr Heap Addr HeapObject) Bool)
(declare-fun _Glue10 (Heap Addr HeapObject) Bool)
(declare-fun _Glue16 (Heap Addr Addr HeapObject) Bool)
(declare-fun _Glue3 (Heap Addr Addr HeapObject) Bool)
(assert (forall ((var0 HeapObject) (var1 TSLL) (var2 Heap) (var3 Int) (var4 Addr) (var5 Addr)) (not (and (and (Inv_Heap_exp_exp var5 var4 var3) (inv_main_14 var2 var5)) (and (and (and (and (and (= (O_TSLL var1) var0) (= (TSLL var4 var3) var1)) (not (= 1 var3))) (not (= 0 var3))) (= (read var2 var5) var0)) (valid var2 var5))))))
(assert (forall ((var0 TSLL) (var1 HeapObject) (var2 Int) (var3 Addr) (var4 Heap)) (not (and (inv_main_14 var4 var3) (and (and (and (and (and (not (= 1 var2)) (not (= 0 var2))) (= (read var4 var3) var1)) (= (getTSLL var1) var0)) (= (|TSLL::data| var0) var2)) (not (valid var4 var3)))))))
(assert (forall ((var0 HeapObject) (var1 TSLL) (var2 Heap) (var3 Int) (var4 Addr) (var5 Addr)) (or (not (and (and (Inv_Heap_exp_exp var5 var4 var3) (inv_main_14 var2 var5)) (and (and (and (= (O_TSLL var1) var0) (= (TSLL var4 var3) var1)) (= (read var2 var5) var0)) (valid var2 var5)))) (_Glue5 var2 var0))))
(assert (forall ((var0 HeapObject) (var1 Addr) (var2 Heap)) (or (not (and (inv_main_14 var2 var1) (and (= (read var2 var1) var0) (not (valid var2 var1))))) (_Glue5 var2 var0))))
(assert (forall ((var0 TSLL) (var1 HeapObject) (var2 TSLL) (var3 HeapObject) (var4 Heap) (var5 Int) (var6 Addr) (var7 Addr)) (not (and (and (Inv_Heap_exp_exp var7 var6 var5) (_Glue5 var4 var3)) (and (and (and (and (and (and (and (= (O_TSLL var2) var1) (= (TSLL var6 var5) var2)) (= (getTSLL var3) var0)) (= (|TSLL::data| var0) 1)) (= (|TSLL::next| var0) var7)) (= (read var4 var7) var1)) (not (= 2 var5))) (valid var4 var7))))))
(assert (forall ((var0 Int) (var1 TSLL) (var2 HeapObject) (var3 Addr) (var4 TSLL) (var5 HeapObject) (var6 Heap)) (not (and (_Glue5 var6 var5) (and (and (and (and (and (and (and (= (getTSLL var5) var4) (= (|TSLL::data| var4) 1)) (= (|TSLL::next| var4) var3)) (= (read var6 var3) var2)) (= (getTSLL var2) var1)) (= (|TSLL::data| var1) var0)) (not (= 2 var0))) (not (valid var6 var3)))))))
(assert (forall ((var0 Int) (var1 Addr) (var2 Addr) (var3 HeapObject) (var4 TSLL) (var5 Addr) (var6 Heap) (var7 Int) (var8 Addr) (var9 Addr)) (or (not (and (and (Inv_Heap_exp_exp var9 var8 var7) (inv_main1007_2 var6 var5 var9)) (and (and (and (and (= (O_TSLL var4) var3) (= (TSLL var8 var7) var4)) (= nullAddr var2)) (= (read var6 var9) var3)) (valid var6 var9)))) (_Glue11_exp_exp var2 var1 var0 var5 var6 var9 var3))))
(assert (forall ((var0 Int) (var1 Addr) (var2 HeapObject) (var3 Addr) (var4 Addr) (var5 Addr) (var6 Heap)) (or (not (and (inv_main1007_2 var6 var5 var4) (and (and (= nullAddr var3) (= (read var6 var4) var2)) (not (valid var6 var4))))) (_Glue11_exp_exp var3 var1 var0 var5 var6 var4 var2))))
(assert (forall ((var0 Int) (var1 Addr) (var2 TSLL) (var3 HeapObject) (var4 Addr) (var5 Heap) (var6 Addr) (var7 Int) (var8 Addr) (var9 Addr)) (or (not (and (_Glue11_exp_exp var9 var8 var7 var6 var5 var4 var3) (and (and (and (= (getTSLL var3) var2) (= (|TSLL::next| var2) var1)) (valid var5 var4)) (= var0 1)))) (Inv_Heap_exp_exp var4 var1 var0))))
(assert (forall ((var0 TSLL) (var1 AllocResHeap) (var2 Heap) (var3 HeapObject) (var4 TSLL) (var5 Addr) (var6 HeapObject) (var7 TSLL) (var8 HeapObject) (var9 Addr) (var10 Heap) (var11 Addr) (var12 Int) (var13 Addr) (var14 Addr)) (or (not (and (_Glue11_exp_exp var14 var13 var12 var11 var10 var9 var8) (and (and (and (and (and (and (and (= (O_TSLL var7) var6) (= (TSLL var5 1) var4)) (= (O_TSLL var4) var3)) (= (TSLL var13 var12) var7)) (= (alloc var2 var6) var1)) (= (getTSLL var8) var0)) (= (|TSLL::next| var0) var5)) (= (write var10 var9 var3) var2)))) (Inv_Heap_exp_exp (newAddr var1) var13 var12))))
(assert (forall ((var0 TSLL) (var1 Heap) (var2 HeapObject) (var3 TSLL) (var4 Addr) (var5 HeapObject) (var6 TSLL) (var7 AllocResHeap) (var8 Addr) (var9 Heap) (var10 HeapObject) (var11 TSLL) (var12 HeapObject) (var13 Heap) (var14 Addr) (var15 Int) (var16 Addr) (var17 Addr) (var18 Int) (var19 Addr) (var20 Addr)) (or (not (and (and (Inv_Heap_exp_exp var20 var19 var18) (_Glue11_exp_exp var17 var16 var15 var14 var13 var20 var12)) (and (and (and (and (and (and (and (and (and (and (and (and (= (O_TSLL var11) var10) (= (AllocResHeap var9 var8) var7)) (= (O_TSLL var6) var5)) (= (TSLL var4 1) var3)) (= (O_TSLL var3) var2)) (= (TSLL var19 var18) var11)) (= (TSLL var16 var15) var6)) (= (read var9 var20) var10)) (valid var9 var20)) (= (alloc var1 var5) var7)) (= (getTSLL var12) var0)) (= (|TSLL::next| var0) var4)) (= (write var13 var20 var2) var1)))) (_Glue14 var20 var14 var17 var8 var9 var10))))
(assert (forall ((var0 TSLL) (var1 Heap) (var2 HeapObject) (var3 HeapObject) (var4 TSLL) (var5 Addr) (var6 HeapObject) (var7 TSLL) (var8 AllocResHeap) (var9 Addr) (var10 Heap) (var11 HeapObject) (var12 Addr) (var13 Heap) (var14 Addr) (var15 Int) (var16 Addr) (var17 Addr)) (or (not (and (_Glue11_exp_exp var17 var16 var15 var14 var13 var12 var11) (and (and (and (and (and (and (and (and (and (and (= (AllocResHeap var10 var9) var8) (= (O_TSLL var7) var6)) (= (TSLL var5 1) var4)) (= (O_TSLL var4) var3)) (= (TSLL var16 var15) var7)) (= (read var10 var12) var2)) (not (valid var10 var12))) (= (alloc var1 var6) var8)) (= (getTSLL var11) var0)) (= (|TSLL::next| var0) var5)) (= (write var13 var12 var3) var1)))) (_Glue14 var12 var14 var17 var9 var10 var2))))
(assert (forall ((var0 Int) (var1 TSLL) (var2 HeapObject) (var3 Heap) (var4 Addr) (var5 Addr) (var6 Addr) (var7 Addr)) (or (not (and (_Glue14 var7 var6 var5 var4 var3 var2) (and (and (= (getTSLL var2) var1) (= (|TSLL::data| var1) var0)) (valid var3 var7)))) (Inv_Heap_exp_exp var7 var4 var0))))
(assert (forall ((var0 TSLL) (var1 Heap) (var2 HeapObject) (var3 TSLL) (var4 Int) (var5 HeapObject) (var6 TSLL) (var7 HeapObject) (var8 Heap) (var9 Addr) (var10 Addr) (var11 Addr) (var12 Int) (var13 Addr) (var14 Addr)) (or (not (and (and (Inv_Heap_exp_exp var14 var13 var12) (_Glue14 var14 var11 var10 var9 var8 var7)) (and (and (and (and (and (and (and (and (= (O_TSLL var6) var5) (= (TSLL var9 var4) var3)) (= (O_TSLL var3) var2)) (= (TSLL var13 var12) var6)) (= (read var1 var14) var5)) (valid var1 var14)) (= (getTSLL var7) var0)) (= (|TSLL::data| var0) var4)) (= (write var8 var14 var2) var1)))) (_Glue16 var1 var11 var10 var5))))
(assert (forall ((var0 HeapObject) (var1 TSLL) (var2 Int) (var3 TSLL) (var4 HeapObject) (var5 Heap) (var6 HeapObject) (var7 Heap) (var8 Addr) (var9 Addr) (var10 Addr) (var11 Addr)) (or (not (and (_Glue14 var11 var10 var9 var8 var7 var6) (and (and (and (and (and (and (= (read var5 var11) var4) (not (valid var5 var11))) (= (getTSLL var6) var3)) (= (|TSLL::data| var3) var2)) (= (TSLL var8 var2) var1)) (= (O_TSLL var1) var0)) (= (write var7 var11 var0) var5)))) (_Glue16 var5 var10 var9 var4))))
(assert (forall ((var0 TSLL) (var1 HeapObject) (var2 TSLL) (var3 HeapObject) (var4 Addr) (var5 Addr) (var6 Heap) (var7 Int) (var8 Addr) (var9 Addr)) (or (not (and (and (Inv_Heap_exp_exp var9 var8 var7) (_Glue16 var6 var5 var4 var3)) (and (and (and (and (and (= (O_TSLL var2) var1) (= (TSLL var8 var7) var2)) (= (getTSLL var3) var0)) (= (|TSLL::next| var0) var9)) (= (read var6 var9) var1)) (valid var6 var9)))) (_Glue17 var4 var5 var6 var9 var1))))
(assert (forall ((var0 HeapObject) (var1 Addr) (var2 TSLL) (var3 HeapObject) (var4 Addr) (var5 Addr) (var6 Heap)) (or (not (and (_Glue16 var6 var5 var4 var3) (and (and (and (= (getTSLL var3) var2) (= (|TSLL::next| var2) var1)) (= (read var6 var1) var0)) (not (valid var6 var1))))) (_Glue17 var4 var5 var6 var1 var0))))
(assert (forall ((var0 Int) (var1 Addr) (var2 TSLL) (var3 HeapObject) (var4 Addr) (var5 Heap) (var6 Addr) (var7 Addr)) (or (not (and (_Glue17 var7 var6 var5 var4 var3) (and (and (and (and (= (getTSLL var3) var2) (= (|TSLL::next| var2) var1)) (not (= var7 var6))) (valid var5 var4)) (= var0 2)))) (Inv_Heap_exp_exp var4 var1 var0))))
(assert (forall ((var0 Heap) (var1 HeapObject) (var2 TSLL) (var3 Addr) (var4 TSLL) (var5 HeapObject) (var6 Addr) (var7 Heap) (var8 Addr) (var9 Addr)) (or (not (and (_Glue17 var9 var8 var7 var6 var5) (and (and (and (and (and (= (getTSLL var5) var4) (= (|TSLL::next| var4) var3)) (= (TSLL var3 2) var2)) (= (O_TSLL var2) var1)) (= (write var7 var6 var1) var0)) (not (= var9 var8))))) (inv_main_14 var0 var8))))
(assert (forall ((var0 AllocResHeap) (var1 Heap) (var2 Int) (var3 Addr) (var4 HeapObject) (var5 TSLL)) (or (not (and (and (and (= (O_TSLL var5) var4) (= (TSLL var3 var2) var5)) (= (alloc var1 var4) var0)) (= emptyHeap var1))) (Inv_Heap_exp_exp (newAddr var0) var3 var2))))
(assert (forall ((var0 Addr) (var1 Heap) (var2 HeapObject) (var3 TSLL) (var4 AllocResHeap) (var5 Heap) (var6 HeapObject) (var7 TSLL) (var8 Int) (var9 Addr) (var10 Addr)) (or (not (and (Inv_Heap_exp_exp var10 var9 var8) (and (and (and (and (and (and (and (and (= (O_TSLL var7) var6) (= (AllocResHeap var5 var10) var4)) (= (O_TSLL var3) var2)) (= (TSLL var9 var8) var7)) (= (read var5 var10) var6)) (valid var5 var10)) (= (alloc var1 var2) var4)) (= nullAddr var0)) (= emptyHeap var1)))) (_Glue8 var10 var0 var5 var6))))
(assert (forall ((var0 Addr) (var1 Heap) (var2 HeapObject) (var3 TSLL) (var4 AllocResHeap) (var5 HeapObject) (var6 Addr) (var7 Heap)) (or (not (and (and (and (and (and (and (= (read var7 var6) var5) (not (valid var7 var6))) (= (AllocResHeap var7 var6) var4)) (= (O_TSLL var3) var2)) (= (alloc var1 var2) var4)) (= nullAddr var0)) (= emptyHeap var1))) (_Glue8 var6 var0 var7 var5))))
(assert (forall ((var0 Int) (var1 TSLL) (var2 HeapObject) (var3 Heap) (var4 Addr) (var5 Addr)) (or (not (and (_Glue8 var5 var4 var3 var2) (and (and (= (getTSLL var2) var1) (= (|TSLL::data| var1) var0)) (valid var3 var5)))) (Inv_Heap_exp_exp var5 var4 var0))))
(assert (forall ((var0 TSLL) (var1 Heap) (var2 HeapObject) (var3 TSLL) (var4 Int) (var5 HeapObject) (var6 TSLL) (var7 HeapObject) (var8 Heap) (var9 Addr) (var10 Int) (var11 Addr) (var12 Addr)) (or (not (and (and (Inv_Heap_exp_exp var12 var11 var10) (_Glue8 var12 var9 var8 var7)) (and (and (and (and (and (and (and (and (= (O_TSLL var6) var5) (= (TSLL var9 var4) var3)) (= (O_TSLL var3) var2)) (= (TSLL var11 var10) var6)) (= (read var1 var12) var5)) (valid var1 var12)) (= (getTSLL var7) var0)) (= (|TSLL::data| var0) var4)) (= (write var8 var12 var2) var1)))) (_Glue10 var1 var12 var5))))
(assert (forall ((var0 HeapObject) (var1 TSLL) (var2 Int) (var3 TSLL) (var4 HeapObject) (var5 Heap) (var6 HeapObject) (var7 Heap) (var8 Addr) (var9 Addr)) (or (not (and (_Glue8 var9 var8 var7 var6) (and (and (and (and (and (and (= (read var5 var9) var4) (not (valid var5 var9))) (= (getTSLL var6) var3)) (= (|TSLL::data| var3) var2)) (= (TSLL var8 var2) var1)) (= (O_TSLL var1) var0)) (= (write var7 var9 var0) var5)))) (_Glue10 var5 var9 var4))))
(assert (forall ((var0 Int) (var1 Addr) (var2 TSLL) (var3 HeapObject) (var4 Addr) (var5 Heap)) (or (not (and (_Glue10 var5 var4 var3) (and (and (and (= (getTSLL var3) var2) (= (|TSLL::next| var2) var1)) (valid var5 var4)) (= var0 0)))) (Inv_Heap_exp_exp var4 var1 var0))))
(assert (forall ((var0 Addr) (var1 Heap) (var2 HeapObject) (var3 TSLL) (var4 Addr) (var5 TSLL) (var6 HeapObject) (var7 Addr) (var8 Heap)) (or (not (and (_Glue10 var8 var7 var6) (and (and (and (and (and (= (getTSLL var6) var5) (= (|TSLL::next| var5) var4)) (= (TSLL var4 0) var3)) (= (O_TSLL var3) var2)) (= (write var8 var7 var2) var1)) (= var0 var7)))) (inv_main1007_2 var1 var7 var0))))
(assert (forall ((var0 HeapObject) (var1 TSLL) (var2 Heap) (var3 Addr) (var4 Addr)) (or (not (and (and (Inv_Heap_exp_exp var4 var3 0) (inv_main_14 var2 var4)) (and (and (and (= (O_TSLL var1) var0) (= (TSLL var3 0) var1)) (= (read var2 var4) var0)) (valid var2 var4)))) (inv_main_14 var2 var3))))
(assert (forall ((var0 Addr) (var1 TSLL) (var2 HeapObject) (var3 Addr) (var4 Heap)) (or (not (and (inv_main_14 var4 var3) (and (and (and (and (= (read var4 var3) var2) (= (getTSLL var2) var1)) (= (|TSLL::data| var1) 0)) (= (|TSLL::next| var1) var0)) (not (valid var4 var3))))) (inv_main_14 var4 var0))))
(assert (forall ((var0 Addr) (var1 Addr) (var2 Heap)) (not (and (inv_main1007_2 var2 var1 var0) (= nullAddr var1)))))
(assert (forall ((var0 AllocResHeap) (var1 Int) (var2 Addr) (var3 HeapObject) (var4 TSLL) (var5 Addr) (var6 Addr) (var7 Heap)) (or (not (and (inv_main1007_2 var7 var6 var5) (and (and (= (O_TSLL var4) var3) (= (TSLL var2 var1) var4)) (= (alloc var7 var3) var0)))) (Inv_Heap_exp_exp (newAddr var0) var2 var1))))
(assert (forall ((var0 Addr) (var1 AllocResHeap) (var2 Addr) (var3 Heap) (var4 HeapObject) (var5 TSLL) (var6 HeapObject) (var7 TSLL) (var8 Addr) (var9 Heap) (var10 Int) (var11 Addr) (var12 Addr)) (or (not (and (and (Inv_Heap_exp_exp var12 var11 var10) (inv_main1007_2 var9 var8 var12)) (and (and (and (and (and (and (and (= (O_TSLL var7) var6) (= (O_TSLL var5) var4)) (= (AllocResHeap var3 var2) var1)) (= (TSLL var11 var10) var7)) (= (read var3 var12) var6)) (valid var3 var12)) (= nullAddr var0)) (= (alloc var9 var4) var1)))) (_Glue19 var12 var0 var2 var3 var6))))
(assert (forall ((var0 Addr) (var1 AllocResHeap) (var2 Addr) (var3 HeapObject) (var4 TSLL) (var5 HeapObject) (var6 Heap) (var7 Addr) (var8 Addr) (var9 Heap)) (or (not (and (inv_main1007_2 var9 var8 var7) (and (and (and (and (and (= (read var6 var7) var5) (not (valid var6 var7))) (= (O_TSLL var4) var3)) (= (AllocResHeap var6 var2) var1)) (= nullAddr var0)) (= (alloc var9 var3) var1)))) (_Glue19 var7 var0 var2 var6 var5))))
(assert (forall ((var0 Int) (var1 TSLL) (var2 HeapObject) (var3 Heap) (var4 Addr) (var5 Addr) (var6 Addr)) (or (not (and (_Glue19 var6 var5 var4 var3 var2) (and (and (= (getTSLL var2) var1) (= (|TSLL::data| var1) var0)) (valid var3 var6)))) (Inv_Heap_exp_exp var6 var4 var0))))
(assert (forall ((var0 TSLL) (var1 Heap) (var2 HeapObject) (var3 TSLL) (var4 Int) (var5 HeapObject) (var6 TSLL) (var7 HeapObject) (var8 Heap) (var9 Addr) (var10 Int) (var11 Addr) (var12 Addr)) (not (and (and (Inv_Heap_exp_exp var12 var11 var10) (_Glue19 var12 var11 var9 var8 var7)) (and (and (and (and (and (and (and (and (= (O_TSLL var6) var5) (= (TSLL var9 var4) var3)) (= (O_TSLL var3) var2)) (= (TSLL var11 var10) var6)) (= (read var1 var12) var5)) (valid var1 var12)) (= (getTSLL var7) var0)) (= (|TSLL::data| var0) var4)) (= (write var8 var12 var2) var1))))))
(assert (forall ((var0 HeapObject) (var1 TSLL) (var2 Int) (var3 TSLL) (var4 TSLL) (var5 HeapObject) (var6 Heap) (var7 HeapObject) (var8 Heap) (var9 Addr) (var10 Addr) (var11 Addr)) (not (and (_Glue19 var11 var10 var9 var8 var7) (and (and (and (and (and (and (and (and (= (read var6 var11) var5) (= (getTSLL var5) var4)) (= (|TSLL::next| var4) var10)) (not (valid var6 var11))) (= (getTSLL var7) var3)) (= (|TSLL::data| var3) var2)) (= (TSLL var9 var2) var1)) (= (O_TSLL var1) var0)) (= (write var8 var11 var0) var6))))))
(assert (forall ((var0 AllocResHeap) (var1 Int) (var2 Addr) (var3 HeapObject) (var4 TSLL) (var5 Addr) (var6 Addr) (var7 Heap)) (or (not (and (inv_main1007_2 var7 var6 var5) (and (and (= (O_TSLL var4) var3) (= (TSLL var2 var1) var4)) (= (alloc var7 var3) var0)))) (Inv_Heap_exp_exp (newAddr var0) var2 var1))))
(assert (forall ((var0 Addr) (var1 AllocResHeap) (var2 Addr) (var3 Heap) (var4 HeapObject) (var5 TSLL) (var6 HeapObject) (var7 TSLL) (var8 Addr) (var9 Heap) (var10 Int) (var11 Addr) (var12 Addr)) (or (not (and (and (Inv_Heap_exp_exp var12 var11 var10) (inv_main1007_2 var9 var8 var12)) (and (and (and (and (and (and (and (= (O_TSLL var7) var6) (= (O_TSLL var5) var4)) (= (AllocResHeap var3 var2) var1)) (= (TSLL var11 var10) var7)) (= (read var3 var12) var6)) (valid var3 var12)) (= nullAddr var0)) (= (alloc var9 var4) var1)))) (_Glue1 var12 var8 var0 var2 var3 var6))))
(assert (forall ((var0 Addr) (var1 AllocResHeap) (var2 Addr) (var3 HeapObject) (var4 TSLL) (var5 HeapObject) (var6 Heap) (var7 Addr) (var8 Addr) (var9 Heap)) (or (not (and (inv_main1007_2 var9 var8 var7) (and (and (and (and (and (= (read var6 var7) var5) (not (valid var6 var7))) (= (O_TSLL var4) var3)) (= (AllocResHeap var6 var2) var1)) (= nullAddr var0)) (= (alloc var9 var3) var1)))) (_Glue1 var7 var8 var0 var2 var6 var5))))
(assert (forall ((var0 Int) (var1 TSLL) (var2 HeapObject) (var3 Heap) (var4 Addr) (var5 Addr) (var6 Addr) (var7 Addr)) (or (not (and (_Glue1 var7 var6 var5 var4 var3 var2) (and (and (= (getTSLL var2) var1) (= (|TSLL::data| var1) var0)) (valid var3 var7)))) (Inv_Heap_exp_exp var7 var4 var0))))
(assert (forall ((var0 TSLL) (var1 Heap) (var2 HeapObject) (var3 TSLL) (var4 Int) (var5 HeapObject) (var6 TSLL) (var7 HeapObject) (var8 Heap) (var9 Addr) (var10 Addr) (var11 Addr) (var12 Int) (var13 Addr) (var14 Addr)) (or (not (and (and (Inv_Heap_exp_exp var14 var13 var12) (_Glue1 var14 var11 var10 var9 var8 var7)) (and (and (and (and (and (and (and (and (= (O_TSLL var6) var5) (= (TSLL var9 var4) var3)) (= (O_TSLL var3) var2)) (= (TSLL var13 var12) var6)) (= (read var1 var14) var5)) (valid var1 var14)) (= (getTSLL var7) var0)) (= (|TSLL::data| var0) var4)) (= (write var8 var14 var2) var1)))) (_Glue3 var1 var11 var10 var5))))
(assert (forall ((var0 HeapObject) (var1 TSLL) (var2 Int) (var3 TSLL) (var4 HeapObject) (var5 Heap) (var6 HeapObject) (var7 Heap) (var8 Addr) (var9 Addr) (var10 Addr) (var11 Addr)) (or (not (and (_Glue1 var11 var10 var9 var8 var7 var6) (and (and (and (and (and (and (= (read var5 var11) var4) (not (valid var5 var11))) (= (getTSLL var6) var3)) (= (|TSLL::data| var3) var2)) (= (TSLL var8 var2) var1)) (= (O_TSLL var1) var0)) (= (write var7 var11 var0) var5)))) (_Glue3 var5 var10 var9 var4))))
(assert (forall ((var0 TSLL) (var1 HeapObject) (var2 TSLL) (var3 HeapObject) (var4 Addr) (var5 Addr) (var6 Heap) (var7 Int) (var8 Addr) (var9 Addr)) (or (not (and (and (Inv_Heap_exp_exp var9 var8 var7) (_Glue3 var6 var5 var4 var3)) (and (and (and (and (and (and (= (O_TSLL var2) var1) (= (TSLL var8 var7) var2)) (= (getTSLL var3) var0)) (= (|TSLL::next| var0) var9)) (not (= var4 var9))) (= (read var6 var9) var1)) (valid var6 var9)))) (_Glue4 var5 var6 var9 var1))))
(assert (forall ((var0 HeapObject) (var1 Addr) (var2 TSLL) (var3 HeapObject) (var4 Addr) (var5 Addr) (var6 Heap)) (or (not (and (_Glue3 var6 var5 var4 var3) (and (and (and (and (= (getTSLL var3) var2) (= (|TSLL::next| var2) var1)) (not (= var4 var1))) (= (read var6 var1) var0)) (not (valid var6 var1))))) (_Glue4 var5 var6 var1 var0))))
(assert (forall ((var0 Int) (var1 Addr) (var2 TSLL) (var3 HeapObject) (var4 Addr) (var5 Heap) (var6 Addr)) (or (not (and (_Glue4 var6 var5 var4 var3) (and (and (and (= (getTSLL var3) var2) (= (|TSLL::next| var2) var1)) (valid var5 var4)) (= var0 0)))) (Inv_Heap_exp_exp var4 var1 var0))))
(assert (forall ((var0 Heap) (var1 HeapObject) (var2 TSLL) (var3 Addr) (var4 TSLL) (var5 HeapObject) (var6 Addr) (var7 Heap) (var8 Addr)) (or (not (and (_Glue4 var8 var7 var6 var5) (and (and (and (and (= (getTSLL var5) var4) (= (|TSLL::next| var4) var3)) (= (TSLL var3 0) var2)) (= (O_TSLL var2) var1)) (= (write var7 var6 var1) var0)))) (inv_main1007_2 var0 var8 var6))))
(check-sat)
